914.80 0
0 3 79 33 81 78 34 35 71 65 66 20 9 51 69 0
0 83 8 36 49 64 63 90 32 30 70 10 11 19 62 88 0
0 31 1 50 76 77 68 80 29 24 55 25 67 23 41 0
0 26 21 74 22 75 56 39 4 54 12 28 27 0
0 89 18 60 5 84 17 45 46 47 48 82 7 52 0
0 53 40 72 73 2 87 97 99 96 6 0
0 94 92 98 37 100 91 85 93 59 95 13 0
0 58 57 15 43 42 14 44 38 86 16 61 0